3 100 1766
5 6 4 11 6 5 7 10 7 6
2 1 4
7 3
5
3 3 4 9
0 35.0 35.0 0.0 0.0 0 230
2 41.0 49.0 10.0 10.0 0 204 17 0 0 0 1 0 0 0 0 0 0
3 35.0 17.0 10.0 7.0 0 202 72 0 0 1 0 1 0 0 0 0 1
4 55.0 45.0 10.0 13.0 0 197 77 0 0 0 0 1 0 1 1 0 0
5 55.0 20.0 10.0 19.0 139 169 14 0 1 0 0 0 0 0 0 0 0
6 15.0 30.0 10.0 26.0 0 199 65 0 0 0 0 1 0 1 0 0 0
7 25.0 30.0 10.0 3.0 89 119 64 1 1 1 1 0 0 1 0 0 0
8 20.0 50.0 10.0 5.0 0 198 12 0 1 0 1 1 0 0 0 0 0
9 10.0 43.0 10.0 9.0 85 115 42 0 1 0 0 1 0 0 0 0 0
10 55.0 60.0 10.0 16.0 87 117 68 0 0 0 0 1 0 1 0 0 1
11 30.0 60.0 10.0 16.0 114 144 73 0 1 0 0 0 0 0 0 0 0
12 20.0 65.0 10.0 12.0 57 87 38 0 1 0 0 0 0 1 0 0 1
13 50.0 35.0 10.0 19.0 0 205 38 0 0 0 0 0 0 0 1 1 0
14 30.0 25.0 10.0 23.0 149 179 51 0 0 0 1 1 0 1 0 0 0
15 15.0 10.0 10.0 20.0 0 187 22 0 1 0 0 0 1 0 1 0 1
16 30.0 5.0 10.0 8.0 51 81 41 0 0 0 0 0 1 0 0 0 0
17 10.0 20.0 10.0 19.0 0 190 71 0 0 0 0 0 1 0 1 0 1
18 5.0 30.0 10.0 2.0 147 177 39 0 0 0 0 0 1 0 0 0 0
19 20.0 40.0 10.0 12.0 0 204 38 0 1 0 0 1 0 0 1 0 0
20 15.0 60.0 10.0 17.0 0 187 85 0 0 1 0 0 0 0 0 0 0
21 45.0 65.0 10.0 9.0 0 188 86 0 0 1 0 0 0 0 0 0 0
22 45.0 20.0 10.0 11.0 0 201 32 0 0 0 1 0 0 0 0 0 0
23 45.0 10.0 10.0 18.0 87 117 63 0 0 0 1 1 0 0 0 0 1
24 55.0 5.0 10.0 29.0 58 88 97 1 0 0 0 0 0 0 1 0 0
25 65.0 35.0 10.0 3.0 0 190 6 0 0 0 0 0 0 1 0 0 0
26 65.0 20.0 10.0 6.0 156 186 4 0 0 1 0 0 0 0 0 0 0
27 45.0 30.0 10.0 17.0 0 208 78 0 1 0 1 0 0 0 0 1 1
28 35.0 40.0 10.0 16.0 27 57 95 1 0 0 0 0 0 1 1 0 0
29 41.0 37.0 10.0 16.0 0 213 7 0 0 0 1 0 0 0 0 0 0
30 64.0 42.0 10.0 9.0 0 190 27 0 1 0 0 0 1 0 1 0 0
31 40.0 60.0 10.0 21.0 61 91 83 1 0 0 1 0 0 0 1 0 0
32 31.0 52.0 10.0 27.0 0 202 44 0 0 0 0 0 1 0 0 0 0
33 35.0 69.0 10.0 23.0 0 186 79 0 0 0 0 0 0 0 0 1 1
34 53.0 52.0 10.0 11.0 27 57 93 0 0 0 1 0 0 1 1 0 1
35 65.0 55.0 10.0 14.0 0 183 14 0 0 1 0 0 1 0 0 1 0
36 63.0 65.0 10.0 8.0 133 163 99 1 0 0 0 0 0 1 1 1 1
37 2.0 60.0 10.0 5.0 41 71 90 0 0 0 1 0 0 0 0 0 0
38 20.0 20.0 10.0 8.0 0 198 74 0 0 0 0 0 1 0 0 0 0
39 5.0 5.0 10.0 16.0 73 103 95 0 0 0 0 0 1 0 0 0 0
40 60.0 12.0 10.0 31.0 34 64 70 0 0 0 0 0 1 0 0 0 1
41 40.0 25.0 10.0 9.0 75 105 41 1 0 0 0 1 0 0 0 0 0
42 42.0 7.0 10.0 5.0 87 117 83 0 0 0 1 0 0 0 0 1 0
43 24.0 12.0 10.0 5.0 25 55 66 0 1 1 0 0 0 0 0 0 0
44 23.0 3.0 10.0 7.0 0 185 34 0 0 0 0 0 0 1 0 0 0
45 11.0 14.0 10.0 18.0 59 89 47 0 0 0 0 0 0 0 0 1 1
46 6.0 38.0 10.0 16.0 29 59 26 0 0 1 0 0 0 0 0 0 0
47 2.0 48.0 10.0 1.0 0 184 64 0 0 0 0 0 1 0 0 0 0
48 8.0 56.0 10.0 27.0 0 185 91 0 1 0 0 0 0 0 1 0 0
49 13.0 52.0 10.0 36.0 0 192 5 0 0 0 0 0 0 1 0 0 0
50 6.0 68.0 10.0 30.0 98 128 76 0 0 1 0 0 0 0 1 0 0
51 47.0 47.0 10.0 13.0 0 203 96 1 1 0 0 0 1 0 0 1 0
52 49.0 58.0 10.0 10.0 0 193 83 1 0 0 0 0 0 0 1 1 0
53 27.0 43.0 10.0 9.0 0 208 20 0 0 0 0 0 1 0 0 0 0
54 37.0 31.0 10.0 14.0 85 115 78 0 0 0 0 0 0 1 1 1 1
55 57.0 29.0 10.0 18.0 0 197 93 0 0 0 0 0 0 0 0 1 0
56 63.0 23.0 10.0 2.0 126 156 42 0 0 0 1 1 0 0 0 1 0
57 53.0 12.0 10.0 6.0 120 150 30 0 0 0 0 0 1 0 0 0 0
58 32.0 12.0 10.0 7.0 0 196 65 1 1 0 0 0 0 0 0 1 0
59 36.0 26.0 10.0 18.0 180 210 65 0 0 0 0 0 1 0 0 0 0
60 21.0 24.0 10.0 28.0 0 202 4 0 0 0 0 1 0 0 1 0 0
61 17.0 34.0 10.0 3.0 0 201 37 1 0 0 0 0 0 0 0 0 1
62 12.0 24.0 10.0 13.0 0 194 15 0 0 0 1 0 0 1 1 0 0
63 24.0 58.0 10.0 19.0 48 78 42 1 1 0 1 0 0 0 0 0 0
64 27.0 69.0 10.0 10.0 0 185 86 0 0 0 0 0 1 0 0 1 0
65 15.0 77.0 10.0 9.0 63 93 48 0 0 0 0 0 1 0 0 0 0
66 62.0 77.0 10.0 20.0 49 79 28 1 0 1 0 0 1 0 0 0 0
67 49.0 73.0 10.0 25.0 117 147 60 1 0 1 0 0 1 1 0 0 0
68 67.0 5.0 10.0 25.0 73 103 27 0 0 1 0 0 0 0 0 0 0
69 56.0 39.0 10.0 36.0 132 162 56 0 0 0 0 0 0 0 0 1 0
70 37.0 47.0 10.0 6.0 40 70 95 0 0 0 0 0 1 1 0 0 0
71 37.0 56.0 10.0 5.0 168 198 65 1 0 0 0 0 0 0 0 1 1
72 57.0 68.0 10.0 15.0 0 180 42 0 0 0 0 0 1 0 0 0 0
73 47.0 16.0 10.0 25.0 0 197 62 1 0 0 1 0 0 0 0 1 0
74 44.0 17.0 10.0 9.0 0 199 42 0 0 0 1 0 0 0 0 0 0
75 46.0 13.0 10.0 8.0 139 169 33 1 0 0 0 0 0 0 0 0 1
76 49.0 11.0 10.0 18.0 0 192 61 1 0 0 1 0 1 0 1 1 0
77 49.0 42.0 10.0 13.0 63 93 20 0 0 0 0 0 1 0 0 0 0
78 53.0 43.0 10.0 14.0 169 199 41 0 0 0 0 0 1 0 0 0 0
79 61.0 52.0 10.0 3.0 86 116 62 0 1 1 0 0 0 1 0 0 0
80 57.0 48.0 10.0 23.0 82 112 14 1 0 0 0 0 1 1 0 1 0
81 56.0 37.0 10.0 6.0 168 198 97 0 0 0 0 1 0 0 1 0 0
82 55.0 54.0 10.0 26.0 0 192 77 0 0 0 0 0 1 0 0 0 0
83 15.0 47.0 10.0 16.0 0 196 3 0 0 0 1 1 0 1 0 0 1
84 14.0 37.0 10.0 11.0 0 198 38 0 0 0 0 0 1 0 0 0 0
85 11.0 31.0 10.0 7.0 91 121 47 0 1 0 1 0 0 0 0 0 0
86 16.0 22.0 10.0 41.0 0 196 54 0 1 0 0 0 0 0 0 0 0
87 4.0 18.0 10.0 35.0 0 184 88 0 0 0 0 0 0 1 0 0 0
88 28.0 18.0 10.0 26.0 83 113 90 0 0 0 0 0 0 1 0 0 0
89 26.0 52.0 10.0 9.0 64 94 64 0 0 0 0 0 1 0 0 0 0
90 26.0 35.0 10.0 15.0 0 211 91 0 0 0 1 1 0 0 0 0 1
91 31.0 67.0 10.0 3.0 0 187 51 0 1 0 1 0 0 1 1 0 0
92 15.0 19.0 10.0 1.0 0 194 42 0 0 1 0 0 1 0 0 0 0
93 22.0 22.0 10.0 2.0 18 48 33 0 0 0 0 0 0 0 1 0 0
94 18.0 24.0 10.0 22.0 169 199 26 0 0 0 1 0 1 0 1 1 0
95 26.0 27.0 10.0 27.0 0 207 75 0 1 1 0 0 0 0 0 0 0
96 25.0 24.0 10.0 20.0 0 205 14 0 1 0 0 0 0 0 0 0 0
97 22.0 27.0 10.0 11.0 0 204 36 0 0 0 0 0 0 0 1 0 0
98 25.0 21.0 10.0 12.0 0 202 25 1 0 1 0 0 0 0 1 0 0
99 19.0 21.0 10.0 10.0 0 198 7 0 0 0 0 0 1 0 0 0 0
100 20.0 26.0 10.0 9.0 73 103 8 1 1 0 0 0 0 0 0 0 0
101 18.0 18.0 10.0 17.0 165 195 76 0 1 0 0 0 1 0 1 1 0